p edge 50 118 15
v 5 2 5 13 19 26
v 3 6 22 29
v 3 8 12 39
v 3 4 7 16
v 3 11 24 25
v 6 1 17 23 36 43 46
v 2 18 30
v 6 14 15 21 33 37 45
v 3 27 32 35
v 1 49
v 3 10 34 42
v 6 28 38 40 41 44 47
v 1 20
v 1 3
v 4 9 31 48 50
e 1 11
e 1 12
e 1 16
e 1 21
e 2 5
e 2 10
e 2 11
e 2 49
e 3 22
e 3 27
e 3 28
e 3 33
e 3 40
e 3 50
e 4 8
e 4 9
e 4 27
e 4 37
e 4 41
e 5 7
e 5 17
e 5 23
e 5 33
e 5 50
e 6 14
e 6 28
e 6 37
e 7 10
e 7 17
e 7 39
e 7 43
e 8 12
e 8 16
e 8 46
e 8 47
e 8 48
e 9 13
e 9 14
e 9 16
e 9 33
e 10 21
e 11 14
e 11 25
e 11 29
e 11 35
e 11 45
e 12 20
e 12 21
e 12 22
e 12 26
e 12 40
e 12 46
e 13 15
e 13 24
e 14 34
e 14 43
e 15 26
e 15 39
e 15 46
e 16 17
e 16 28
e 16 35
e 16 36
e 16 38
e 17 36
e 17 41
e 18 19
e 18 23
e 18 31
e 18 49
e 19 27
e 19 32
e 19 45
e 20 25
e 20 30
e 20 32
e 21 33
e 21 38
e 22 24
e 22 31
e 22 37
e 23 26
e 23 41
e 23 48
e 24 32
e 24 36
e 24 42
e 25 31
e 25 34
e 25 42
e 26 28
e 26 39
e 27 28
e 27 45
e 28 29
e 28 47
e 29 44
e 30 36
e 30 40
e 31 32
e 31 43
e 31 45
e 32 39
e 32 49
e 33 34
e 34 38
e 34 41
e 35 37
e 36 40
e 36 43
e 37 45
e 38 46
e 38 49
e 39 45
e 40 43
e 40 47
e 42 46
e 47 50
